[VALIDATOR STDOUT]
Type-checking move
...action passes type checking.
Type-checking pick
...action passes type checking.
Type-checking drop
...action passes type checking.
Checking plan: /home/jfan5/Safety-gen/runs/benchmark/optic/grippers_20260205_142606/grippers/optic_results/grippers-n2-r16-o14-s14001.plan
Plan to validate:

Plan size: 55
1:
(pick robot2 ball8 room8 lgripper2)
 
2:
(pick robot2 ball12 room8 rgripper2)
 
3:
(pick robot1 ball13 room11 lgripper1)
 
4:
(move robot1 room11 room9)
 
5:
(move robot2 room8 room13)
 
6:
(drop robot1 ball13 room9 lgripper1)
 
7:
(drop robot2 ball12 room13 rgripper2)
 
8:
(move robot2 room13 room1)
 
9:
(move robot1 room9 room8)
 
10:
(drop robot2 ball8 room1 lgripper2)
 
11:
(pick robot2 ball9 room1 rgripper2)
 
12:
(move robot1 room8 room6)
 
13:
(move robot2 room1 room11)
 
14:
(pick robot1 ball10 room6 lgripper1)
 
15:
(drop robot2 ball9 room11 rgripper2)
 
16:
(move robot1 room6 room9)
 
17:
(move robot2 room11 room9)
 
18:
(move robot1 room9 room1)
 
19:
(drop robot1 ball10 room1 lgripper1)
 
20:
(pick robot1 ball14 room1 rgripper1)
 
21:
(move robot2 room9 room5)
 
22:
(move robot1 room1 room3)
 
23:
(pick robot2 ball11 room5 lgripper2)
 
24:
(drop robot1 ball14 room3 rgripper1)
 
25:
(move robot2 room5 room9)
 
26:
(pick robot1 ball5 room3 lgripper1)
 
27:
(move robot1 room3 room9)
 
28:
(move robot2 room9 room1)
 
29:
(drop robot1 ball5 room9 lgripper1)
 
30:
(drop robot2 ball11 room1 lgripper2)
 
31:
(move robot2 room1 room9)
 
32:
(move robot1 room9 room4)
 
33:
(move robot2 room9 room14)
 
34:
(pick robot1 ball7 room4 lgripper1)
 
35:
(move robot1 room4 room8)
 
36:
(pick robot2 ball3 room14 lgripper2)
 
37:
(drop robot1 ball7 room8 lgripper1)
 
38:
(move robot2 room14 room10)
 
39:
(drop robot2 ball3 room10 lgripper2)
 
40:
(pick robot2 ball6 room10 rgripper2)
 
41:
(move robot1 room8 room14)
 
42:
(move robot2 room10 room9)
 
43:
(pick robot1 ball1 room14 lgripper1)
 
44:
(drop robot2 ball6 room9 rgripper2)
 
45:
(move robot1 room14 room8)
 
46:
(move robot2 room9 room13)
 
47:
(move robot1 room8 room15)
 
48:
(pick robot2 ball2 room13 lgripper2)
 
49:
(drop robot1 ball1 room15 lgripper1)
 
50:
(move robot1 room15 room12)
 
51:
(move robot2 room13 room14)
 
52:
(drop robot2 ball2 room14 lgripper2)
 
53:
(pick robot1 ball4 room12 lgripper1)
 
54:
(move robot1 room12 room8)
 
55:
(drop robot1 ball4 room8 lgripper1)
 

Plan Validation details
-----------------------

Checking next happening (time 1)
Deleting (at ball8 room8)
Deleting (free robot2 lgripper2)
Adding (carry robot2 ball8 lgripper2)

Checking next happening (time 2)
Deleting (at ball12 room8)
Deleting (free robot2 rgripper2)
Adding (carry robot2 ball12 rgripper2)

Checking next happening (time 3)
Deleting (at ball13 room11)
Deleting (free robot1 lgripper1)
Adding (carry robot1 ball13 lgripper1)

Checking next happening (time 4)
Deleting (at-robby robot1 room11)
Adding (at-robby robot1 room9)

Checking next happening (time 5)
Deleting (at-robby robot2 room8)
Adding (at-robby robot2 room13)

Checking next happening (time 6)
Deleting (carry robot1 ball13 lgripper1)
Adding (at ball13 room9)
Adding (free robot1 lgripper1)

Checking next happening (time 7)
Deleting (carry robot2 ball12 rgripper2)
Adding (at ball12 room13)
Adding (free robot2 rgripper2)

Checking next happening (time 8)
Deleting (at-robby robot2 room13)
Adding (at-robby robot2 room1)

Checking next happening (time 9)
Deleting (at-robby robot1 room9)
Adding (at-robby robot1 room8)

Checking next happening (time 10)
Deleting (carry robot2 ball8 lgripper2)
Adding (at ball8 room1)
Adding (free robot2 lgripper2)

Checking next happening (time 11)
Deleting (at ball9 room1)
Deleting (free robot2 rgripper2)
Adding (carry robot2 ball9 rgripper2)

Checking next happening (time 12)
Deleting (at-robby robot1 room8)
Adding (at-robby robot1 room6)

Checking next happening (time 13)
Deleting (at-robby robot2 room1)
Adding (at-robby robot2 room11)

Checking next happening (time 14)
Deleting (at ball10 room6)
Deleting (free robot1 lgripper1)
Adding (carry robot1 ball10 lgripper1)

Checking next happening (time 15)
Deleting (carry robot2 ball9 rgripper2)
Adding (at ball9 room11)
Adding (free robot2 rgripper2)

Checking next happening (time 16)
Deleting (at-robby robot1 room6)
Adding (at-robby robot1 room9)

Checking next happening (time 17)
Deleting (at-robby robot2 room11)
Adding (at-robby robot2 room9)

Checking next happening (time 18)
Deleting (at-robby robot1 room9)
Adding (at-robby robot1 room1)

Checking next happening (time 19)
Deleting (carry robot1 ball10 lgripper1)
Adding (at ball10 room1)
Adding (free robot1 lgripper1)

Checking next happening (time 20)
Deleting (at ball14 room1)
Deleting (free robot1 rgripper1)
Adding (carry robot1 ball14 rgripper1)

Checking next happening (time 21)
Deleting (at-robby robot2 room9)
Adding (at-robby robot2 room5)

Checking next happening (time 22)
Deleting (at-robby robot1 room1)
Adding (at-robby robot1 room3)

Checking next happening (time 23)
Deleting (at ball11 room5)
Deleting (free robot2 lgripper2)
Adding (carry robot2 ball11 lgripper2)

Checking next happening (time 24)
Deleting (carry robot1 ball14 rgripper1)
Adding (at ball14 room3)
Adding (free robot1 rgripper1)

Checking next happening (time 25)
Deleting (at-robby robot2 room5)
Adding (at-robby robot2 room9)

Checking next happening (time 26)
Deleting (at ball5 room3)
Deleting (free robot1 lgripper1)
Adding (carry robot1 ball5 lgripper1)

Checking next happening (time 27)
Deleting (at-robby robot1 room3)
Adding (at-robby robot1 room9)

Checking next happening (time 28)
Deleting (at-robby robot2 room9)
Adding (at-robby robot2 room1)

Checking next happening (time 29)
Deleting (carry robot1 ball5 lgripper1)
Adding (at ball5 room9)
Adding (free robot1 lgripper1)

Checking next happening (time 30)
Deleting (carry robot2 ball11 lgripper2)
Adding (at ball11 room1)
Adding (free robot2 lgripper2)

Checking next happening (time 31)
Deleting (at-robby robot2 room1)
Adding (at-robby robot2 room9)

Checking next happening (time 32)
Deleting (at-robby robot1 room9)
Adding (at-robby robot1 room4)

Checking next happening (time 33)
Deleting (at-robby robot2 room9)
Adding (at-robby robot2 room14)

Checking next happening (time 34)
Deleting (at ball7 room4)
Deleting (free robot1 lgripper1)
Adding (carry robot1 ball7 lgripper1)

Checking next happening (time 35)
Deleting (at-robby robot1 room4)
Adding (at-robby robot1 room8)

Checking next happening (time 36)
Deleting (at ball3 room14)
Deleting (free robot2 lgripper2)
Adding (carry robot2 ball3 lgripper2)

Checking next happening (time 37)
Deleting (carry robot1 ball7 lgripper1)
Adding (at ball7 room8)
Adding (free robot1 lgripper1)

Checking next happening (time 38)
Deleting (at-robby robot2 room14)
Adding (at-robby robot2 room10)

Checking next happening (time 39)
Deleting (carry robot2 ball3 lgripper2)
Adding (at ball3 room10)
Adding (free robot2 lgripper2)

Checking next happening (time 40)
Deleting (at ball6 room10)
Deleting (free robot2 rgripper2)
Adding (carry robot2 ball6 rgripper2)

Checking next happening (time 41)
Deleting (at-robby robot1 room8)
Adding (at-robby robot1 room14)

Checking next happening (time 42)
Deleting (at-robby robot2 room10)
Adding (at-robby robot2 room9)

Checking next happening (time 43)
Deleting (at ball1 room14)
Deleting (free robot1 lgripper1)
Adding (carry robot1 ball1 lgripper1)

Checking next happening (time 44)
Deleting (carry robot2 ball6 rgripper2)
Adding (at ball6 room9)
Adding (free robot2 rgripper2)

Checking next happening (time 45)
Deleting (at-robby robot1 room14)
Adding (at-robby robot1 room8)

Checking next happening (time 46)
Deleting (at-robby robot2 room9)
Adding (at-robby robot2 room13)

Checking next happening (time 47)
Deleting (at-robby robot1 room8)
Adding (at-robby robot1 room15)

Checking next happening (time 48)
Deleting (at ball2 room13)
Deleting (free robot2 lgripper2)
Adding (carry robot2 ball2 lgripper2)

Checking next happening (time 49)
Deleting (carry robot1 ball1 lgripper1)
Adding (at ball1 room15)
Adding (free robot1 lgripper1)

Checking next happening (time 50)
Deleting (at-robby robot1 room15)
Adding (at-robby robot1 room12)

Checking next happening (time 51)
Deleting (at-robby robot2 room13)
Adding (at-robby robot2 room14)

Checking next happening (time 52)
Deleting (carry robot2 ball2 lgripper2)
Adding (at ball2 room14)
Adding (free robot2 lgripper2)

Checking next happening (time 53)
Deleting (at ball4 room12)
Deleting (free robot1 lgripper1)
Adding (carry robot1 ball4 lgripper1)

Checking next happening (time 54)
Deleting (at-robby robot1 room12)
Adding (at-robby robot1 room8)

Checking next happening (time 55)
Deleting (carry robot1 ball4 lgripper1)
Adding (at ball4 room8)
Adding (free robot1 lgripper1)
Plan executed successfully - checking goal
Plan valid
Final value: 55 

Successful plans:
Value: 55
 /home/jfan5/Safety-gen/runs/benchmark/optic/grippers_20260205_142606/grippers/optic_results/grippers-n2-r16-o14-s14001.plan 55
